# ==============================================================================
# in.04_nemd_thermal.lammps
# Buoc 5: Ap dat gradient nhiet (NEMD hai vung nong/lanh - "two-region"
# method) de do dong nhiet qua giao dien GaN/SiC va tinh do dan nhiet
# giao dien (interfacial / Kapitza thermal conductance, G).
#
# Phuong phap: direct NEMD hai vung Langevin thermostat (Ikeshoji-Hafskjold
# style). Thay the bang fix "thermal/conductivity" (Muller-Plathe swap) neu
# muon dung reverse-NEMD - script cho phuong an do duoi day dung comment
# o cuoi file.
#
# Cong thuc tinh do dan nhiet giao dien (Kapitza conductance):
#   G = q'' / DeltaT_interface
# trong do q'' [W/m^2] la mat do dong nhiet qua tiet dien ngang,
# DeltaT_interface [K] la do nhay nhiet do (temperature jump) tai giao dien,
# xac dinh tu ngoai suy tuyen tinh profile nhiet do ve 2 phia giao dien.
#
#   q'' = (dE/dt) / A
# voi dE/dt la toc do nang luong bom vao vung nong (hoac rut ra vung lanh)
# o trang thai dung (steady state), A la dien tich mat cat ngang (xy).
# ==============================================================================

units           metal
atom_style      atomic
boundary        p p f
atom_modify     map array
newton          on

# CAP NHAT (05/08/2026): tham so hoa de ten file khop chinh xac voi output
# cua in.03 (restart.postanneal_${T_equil}K_${pka_species}_${E_pka_keV}keV.data).
# Truyen tu dong lenh, vd: -var T_equil 300 -var pka_species Ga -var E_pka_keV 5.0
variable        T_equil    index 300
variable        pka_species index Ga
variable        E_pka_keV  index 5.0
variable        dt       index 0.00025      # ps
variable        t_stab   index 100          # ps
variable        t_prod   index 300          # ps
variable        lseed    index 0            # offset seed Langevin
variable        datafile index data.postanneal_${T_equil}K_${pka_species}_${E_pka_keV}keV.data
# SUA LOI (05/08/2026, xac nhan tren may that): read_restart bao loi "Did not
# assign all restart atoms correctly" tren hop triclinic nghieng manh voi
# nhieu tien trinh MPI. Doi sang read_data (on dinh hon qua kiem chung that).
read_data       ${datafile}

# Force field DA XAC NHAN - xem 02_Force_Field/LJ_interface_crossterms_UFF.md
variable        lj_scale index 1.0     # he so scale LJ giao dien cho sensitivity scan
# CANH BAO GPU (05/08/2026): KHONG dung "-sf gpu" (loi "GPU package styles
# must not be used multiple times" khi 2 substyle TRUNG TEN). Chi dung
# "-pk gpu 1 platform X" - xem QUY_TRINH_CHAY_NGHIEN_CUU.md.
# CAP NHAT (06/08/2026, nang cap hieu nang): substyle GaN chuyen sang
# "tersoff/gpu", substyle SiC giu "tersoff" (CPU) - 2 ten KHAC NHAU nen
# khong bi chan, khong con can chi so 1/2 trong pair_coeff. Da kiem chung
# qua test proxy (tersoff/omp), PotEng khop chinh xac voi ban CPU thuan.
# CAP NHAT (05/08/2026, xac nhan qua test that): BAT BUOC them "neigh no"
# vao lenh -pk gpu, neu khong se loi "Must not use GPU neighbor lists with
# hybrid pair style".
# CAP NHAT (11/08/2026, sau 12 to hop chay on dinh khong crash): BAT LAI OMP
# cho substyle SiC, GIOI HAN tong luong = 14 (giu dung 70%% da chot) bang
# cach GIAM MPI tu 14 xuong 7 VA them 2 luong OMP/tien trinh (7x2=14 luong).
# RUI RO: neu LAMMPS khong bien dich kem OPENMP se bao loi ngay khi khoi
# dong - neu gap, doi ve "tersoff" (bo /omp) va "-n 14" (bo "-pk omp").
pair_style      hybrid/overlay tersoff tersoff lj/cut 10.0
pair_coeff      * * tersoff 1 GaN.tersoff Ga N NULL NULL
pair_coeff      * * tersoff 2 SiC.tersoff NULL NULL Si C
pair_coeff      1 1 lj/cut 0.0 1.0 2.0
pair_coeff      2 2 lj/cut 0.0 1.0 2.0
pair_coeff      1 2 lj/cut 0.0 1.0 2.0
pair_coeff      3 3 lj/cut 0.0 1.0 2.0
pair_coeff      4 4 lj/cut 0.0 1.0 2.0
pair_coeff      3 4 lj/cut 0.0 1.0 2.0
pair_coeff      1 3 lj/cut $(0.01771*v_lj_scale) 3.8654   # Ga-Si (UFF combining rule)
pair_coeff      1 4 lj/cut $(0.00905*v_lj_scale) 3.6602   # Ga-C
pair_coeff      2 3 lj/cut $(0.00722*v_lj_scale) 3.5322   # N-Si
pair_coeff      2 4 lj/cut $(0.00369*v_lj_scale) 3.3447   # N-C

variable        T_avg equal ${T_equil}    # nhiet do trung binh he (= T_equil o tren)
variable        dT    index 20.0         # bien do chenh lech nong/lanh (nho de giu tuyen tinh)

# --- Xac dinh cac vung doc truc z: nong (trong SiC, xa giao dien), lanh (trong GaN, xa giao dien) ---
variable        zlo equal bound(all,zmin)
variable        zhi equal bound(all,zmax)
variable        Lz  equal (v_zhi-v_zlo)

region          r_hot  block INF INF INF INF $(v_zlo+5.0) $(v_zlo+25.0) units box
region          r_cold block INF INF INF INF $(v_zhi-25.0) $(v_zhi-5.0) units box
region          r_fixed_lo block INF INF INF INF ${zlo} $(v_zlo+3.0) units box
region          r_fixed_hi block INF INF INF INF $(v_zhi-3.0) ${zhi} units box

group           g_hot  region r_hot
group           g_cold region r_cold
group           g_fixed region r_fixed_lo
group           g_fixed_hi region r_fixed_hi
group           g_fixed union g_fixed g_fixed_hi
group           g_mobile subtract all g_fixed

# --- Chunk theo z de tinh profile nhiet do (dung cho phan tich sau) ---
# SUA LOI (05/08/2026, xac nhan tren may that): "compute chunk/atom for
# triclinic boxes requires units reduced" - hop mo phong la triclinic (tilt
# xy=30.827 do cau truc GaN/SiC), LAMMPS BAT BUOC dung "units reduced" cho
# compute chunk/atom tren hop triclinic (khong duoc dung "units box" nhu ban
# goc). Vi tilt chi o mat phang xy (xz=yz=0), truc z KHONG bi xien nen chuyen
# doi reduced<->that chi la 1 phep nhan vo huong voi Lz (khong lien quan x,y).
# Be rong bin quy doi tu 2.0 Angstrom sang phan so (2.0/Lz) de GIU NGUYEN
# be rong vat ly ~2 Angstrom nhu thiet ke ban dau.
# QUAN TRONG: cot "Coord1" trong file profile_T_*.dat sau khi doi se la
# PHAN SO (0-1) cua Lz, KHONG con la Angstrom nua - da cap nhat
# post_process_thermal_conductance.py (them tham so --lz) de tu dong quy doi
# lai ve Angstrom truoc khi phan tich, xem huong dan in ra cuoi file nay.
compute         cchunk all chunk/atom bin/1d z lower $(2.0/v_Lz) units reduced
fix             favg all ave/chunk $(round(0.1/v_dt)) 100 $(round(10/v_dt)) cchunk temp file profile_T_${T_avg}K_${pka_species}_${E_pka_keV}keV.dat

# --- Thermostat hai vung (Langevin) tao gradient nhiet ---
# SUA LOI (05/08/2026, xac nhan tren may that): "Fix fix_hot langevin does
# not support fix_modify energy command" - ban LAMMPS nay KHONG cho fix
# langevin dung fix_modify energy de tich luy nang luong (khac voi fix nhu
# indent/wall). Cach dung cua fix langevin la keyword "tally yes" ngay trong
# dong lenh fix - da doi lai, f_fix_hot/f_fix_cold van tra ve nang luong tich
# luy (eV) dung nhu thiet ke ban dau, chi khac cu phap bat tinh nang.
fix             fix_hot  g_hot  langevin $(v_T_avg+v_dT/2) $(v_T_avg+v_dT/2) 0.1 $(11111+v_lseed) tally yes
fix             fix_cold g_cold langevin $(v_T_avg-v_dT/2) $(v_T_avg-v_dT/2) 0.1 $(22222+v_lseed) tally yes
fix             fix_nve  g_mobile nve
fix             fix_freeze g_fixed setforce 0.0 0.0 0.0

# SUA LOI (07/08/2026, phong ngua chu dong sau khi in.02 gap "Lost atoms" o
# E_pka_keV=7.0): them tuong phan xa cung (elastic) tai chinh bien hop theo
# truc z, CHI kich hoat trong truong hop hiem nguyen tu sap thoat ra ngoai -
# khong anh huong vat ly binh thuong. Xem giai thich day du trong in.02.
fix             fix_wall_z all wall/reflect zlo EDGE zhi EDGE

# --- Theo doi nang luong tich luy do thermostat bom vao / rut ra (de tinh q) ---
compute         etally_hot  g_hot  temp
compute         etally_cold g_cold temp

thermo          $(round(0.5/v_dt))
thermo_style    custom step temp c_etally_hot c_etally_cold f_fix_hot f_fix_cold
thermo_modify   flush yes

timestep        ${dt}

# --- Giai doan on dinh trang thai dung (steady state) ---
run             $(round(v_t_stab/v_dt))          # ~200 ps - kiem tra profile nhiet do tuyen tinh moi ben giao dien

# --- QUAN TRONG: dinh nghia lai 2 fix langevin de RESET tich luy nang luong
# ve 0 truoc khi vao giai doan production. f_fix_hot/f_fix_cold tich luy nang
# luong tu luc fix duoc dinh nghia (KHONG tu dong reset khi reset_timestep),
# neu khong lam lai buoc nay, dE/dt tinh o cuoi se bi cong don ca 200 ps on
# dinh truoc do, lam sai gia tri G. ---
unfix           fix_hot
unfix           fix_cold
fix             fix_hot  g_hot  langevin $(v_T_avg+v_dT/2) $(v_T_avg+v_dT/2) 0.1 $(33333+v_lseed) tally yes
fix             fix_cold g_cold langevin $(v_T_avg-v_dT/2) $(v_T_avg-v_dT/2) 0.1 $(44444+v_lseed) tally yes

# SUA LOI (05/08/2026, xac nhan tren may that): "Cannot reset timestep with
# time-dependent fix ave/chunk defined" - fix ave/chunk (favg) dang chay giu
# trang thai thoi gian ben trong nen chan reset_timestep. Phai unfix truoc,
# dinh nghia lai SAU reset (giong cach lam voi fix_hot/fix_cold o tren) - vua
# fix duoc loi, vua co loi phu: file profile_T_*.dat se duoc ghi lai TU DAU
# cho giai doan production (khong con lan voi 200 ps on dinh truoc do), dung
# y muon ban dau la chi lay trung binh phan production.
unfix           favg

# --- Giai doan lay trung binh (production) ---
reset_timestep  0
fix             favg all ave/chunk $(round(0.1/v_dt)) 100 $(round(10/v_dt)) cchunk temp file profile_T_${T_avg}K_${pka_species}_${E_pka_keV}keV.dat
dump            dmp_nemd all custom $(round(10/v_dt)) dump.nemd_${T_avg}K_${pka_species}_${E_pka_keV}keV.lammpstrj id type x y z
run             $(round(v_t_prod/v_dt))          # ~400 ps production - du dai de trung binh dong nhiet on dinh

variable        A_cross equal (lx*ly)        # dien tich mat cat ngang xy [Angstrom^2]
variable        dEdt_hot  equal f_fix_hot/v_t_prod     # eV/ps tich luy tu fix_hot
variable        dEdt_cold equal f_fix_cold/v_t_prod

print           "=== KET QUA NEMD (can hau xu ly them, xem post_process) ==="
print           "A_cross (Angstrom^2) = ${A_cross}"
print           "dE/dt hot (eV/ps)  = ${dEdt_hot}"
print           "dE/dt cold (eV/ps) = ${dEdt_cold}"
print           "Lz (Angstrom, chieu dai hop theo z) = ${Lz}"
print           "QUAN TRONG: cot Coord1 trong profile_T_*.dat la PHAN SO (0-1) cua Lz o tren"
print           "(hop triclinic bat buoc dung units reduced), KHONG phai Angstrom - PHAI"
print           "truyen --lz ${Lz} cho post_process_thermal_conductance.py de doi lai Angstrom."
print           "Doc profile_T_${T_avg}K_${pka_species}_${E_pka_keV}keV.dat de trich DeltaT_interface bang ngoai suy tuyen tinh"
print           "Dung script post_process_thermal_conductance.py de tinh G = q'' / DeltaT_interface"

write_restart   restart.nemd_final_${T_avg}K_${pka_species}_${E_pka_keV}keV.data

# --- Phuong an thay the: Reverse-NEMD Muller-Plathe (fix thermal/conductivity) ---
# fix hex all thermal/conductivity 50 z 20
# (hoan doi dong luong giua slab nong nhat va lanh nhat moi 50 buoc, chia 20 bin
#  theo z) - phuong phap nay bao toan nang luong chinh xac hon nhung it truc
#  quan hon khi tach rieng dong nhiet 2 phia giao dien. Co the dung ca hai
#  phuong phap de doi chieu ket qua (khuyen nghi cho SCI paper).
